4	143	143	0	16	16
5	144	103	0	0	0
6	236	184	0	0	0
7	279	240	0	16	16
8	267	244	0	15	15
9	261	225	0	31	31
10	385	227	0	0	0
11	438	306	0	188	188
12	377	317	0	0	0
13	541	335	0	31	31
14	551	398	0	31	31
15	675	363	16	31	47
16	560	375	0	31	31
17	656	396	0	94	94
18	634	456	0	187	187
19	875	522	0	78	78
